%chk=C:\Users\melih\Desktop\G09W\Cl2\cl2_molecule.chk
# hf/3-21g geom=connectivity

Title Card Required

0 1
 Cl                 1.86335409    0.46583850    0.00000000
 Cl                -0.11664591    0.46583850    0.00000000

 1 2 1.0
 2

