%chk=C:\Users\melih\Desktop\G09W\Cl2\Cl2_01.chk
# hf/3-21g geom=connectivity

Cl2_01

0 1
 Cl                 3.26086965   -1.77018631    0.00000000
 Cl                 1.28086965   -1.77018631    0.00000000

 1 2 1.0
 2

